;; lemma to synthesize
(synth-fun lemma ((x Int)) Bool

           ((Start Bool) (Rec Bool) (B Bool) (I Int))

           ((Start Bool
                  ((=> Rec B)))
           (Rec Bool
                  ((list I) (lsegy I) (listy I)))
           (B Bool
                  ((=> B B)
                   (and B B)
                   (or B B)
                   (not B)
                   (list I) (lsegy I) (listy I)))
            (I Int (x (- 1)
                   (next I))))

)
